62	0

0	3	2	3	4
10	5	7	9	11	12	13
7	4	5	6	8	10
8	3	6	8	10
8	3	14	15	16
2	5	7	9	11	12	13
2	3	14	15	16
9	5	17	18	19	20	21
2	3	14	15	16
3	3	11	12	13
3	3	14	15	16
6	5	17	18	19	20	21
3	3	14	15	16
2	5	17	18	19	20	21
4	1	20
5	1	20
8	4	23	24	26	27
7	1	22
6	2	22	25
1	2	22	25
7	1	22
1	4	23	24	26	27
2	3	28	29	35
7	5	30	32	33	34	36
4	3	28	29	35
3	6	30	32	33	34	35	36
2	3	28	29	35
5	5	30	32	33	34	36
5	5	30	32	33	34	36
1	3	31	39	40
6	3	37	38	41
8	3	37	38	41
3	5	37	38	39	40	41
3	5	37	38	39	40	41
7	5	37	38	39	40	41
4	3	37	38	41
3	1	45
9	6	46	47	48	49	50	52
6	3	42	43	44
7	1	45
1	3	42	43	44
5	1	45
9	4	46	47	49	50
10	3	46	47	49
3	6	46	47	48	49	50	52
8	3	54	55	56
2	2	51	53
10	3	54	55	56
4	1	53
5	1	53
6	3	54	55	56
6	1	53
1	3	54	55	56
2	2	57	58
3	2	57	58
8	1	58
10	1	60
2	1	59
3	1	60
3	1	61
7	1	62
0	0
